db/data/97472031329730302309447309322038723649.z3.out
-------------------
2500.131038703
